NAME : y-60_t.-462.tour
COMMENT : Length = -462
COMMENT : Found by LKH [Keld Helsgaun] Sun Apr 13 17:05:01 2025
TYPE : TOUR
DIMENSION : 60
TOUR_SECTION
1
11
59
18
52
9
12
10
23
20
40
25
54
41
39
50
5
31
4
22
17
37
21
3
51
34
33
7
14
36
42
28
19
45
46
30
2
15
43
27
38
26
35
29
49
53
55
60
6
57
44
56
47
48
24
13
16
32
8
58
-1
EOF
